p cnf 40 108
a 23 15 0
e 1 2 3 4 5 6 7 8 9 10 11 12 13 14 16 17 18 19 20 21 22 24 25 26 27 28 29 30 31 32 33 34 35 36 37 38 39 40 0
-4 2 0
-4 3 0
-2 -3 4 0
5 -1 0
5 -4 0
1 4 -5 0
7 -5 0
7 -6 0
5 6 -7 0
-8 9 -10 0
8 -9 -10 0
-8 -9 10 0
8 9 10 0
11 12 -13 0
-11 -12 -13 0
11 -12 13 0
-11 12 13 0
-14 10 0
-14 13 0
-10 -13 14 0
16 -8 0
16 -15 0
8 15 -16 0
-17 -14 0
-17 -16 0
14 16 17 0
18 12 0
18 1 0
-12 -1 -18 0
-17 -18 -19 0
17 18 -19 0
-17 18 19 0
17 -18 19 0
-20 9 0
-20 -2 0
-9 2 20 0
-21 -20 0
-21 -12 0
20 12 21 0
22 -15 0
22 -21 0
15 21 -22 0
-23 2 0
-23 9 0
-2 -9 23 0
-24 23 0
-24 -3 0
-23 3 24 0
25 22 0
25 -24 0
-22 24 -25 0
-26 -19 0
-26 -25 0
19 25 26 0
-27 -7 0
-27 -26 0
7 26 27 0
28 8 0
28 6 0
-8 -6 -28 0
29 -28 0
29 23 0
28 -23 -29 0
30 27 0
30 29 0
-27 -29 -30 0
31 9 0
31 10 0
-9 -10 -31 0
33 31 0
33 -32 0
-31 32 -33 0
-8 11 -34 0
8 -11 -34 0
-8 -11 34 0
8 11 34 0
10 -3 -35 0
-10 3 -35 0
10 3 35 0
-10 -3 35 0
36 34 0
36 -35 0
-34 35 -36 0
37 33 0
37 36 0
-33 -36 -37 0
38 30 0
38 37 0
-30 -37 -38 0
15 -10 -39 0
-15 10 -39 0
15 10 39 0
-15 -10 39 0
-38 -39 -40 0
38 39 -40 0
-38 39 40 0
38 -39 40 0
13 -21 -8 5 22 -2 0
-9 27 -11 -30 38 2 -32 0
2 -32 18 -34 28 17 0
15 -37 10 11 -38 7 -31 0
5 -8 -14 -36 -7 0
-26 -29 -7 30 -17 40 39 -23 0
-3 20 -8 24 40 30 11 0
4 -13 7 19 -25 -33 -38 21 0
13 5 -30 0
10 -6 -24 0
40 0
